<instance format="XCSP3" type="CSP">
  <variables>
    <var id="X0"> 1..2 </var>
    <var id="Y0"> 1..2 </var>
    <var id="X1"> 1..2 </var>
    <var id="Y1"> 1..2 </var>
    <var id="X2"> 1..2 </var>
    <var id="Y2"> 1..3 </var>
    <var id="X3"> 1..2 </var>
    <var id="Y3"> 1..2 </var>
    <var id="X4"> 0..1 </var>
    <var id="Y4"> 0..1 </var>
    <var id="X5"> 1..2 </var>
    <var id="Y5"> 1..2 </var>
  </variables>
  <constraints>
    <block class="Variable operator Constant comparison Variable">
      <intension> eq(add(X0,1),Y0) </intension>
      <intension> ne(sub(X1,1),Y1) </intension>
      <intension> lt(mul(X2,2),Y2) </intension>
      <intension> le(div(X3,2),Y3) </intension>
      <intension> gt(mod(X4,2),Y4) </intension>
      <intension> ge(dist(X5,1),Y5) </intension>
    </block>
  </constraints>
</instance>
